RAW/CMTY/fspd/CMT2Y.vrp_seed-4.out
684.6054418	2.166	24.78
