RAW/CMTY/fspd/CMT2Y.vrp_seed-4.sol
Route #1: 4 45 27 52 8 46 34 67
Route #2: 51 16 63 23 56 41 64 42 43 1 73 33
Route #3: 17 40 44 32 9 39 72 10 58 12 26
Route #4: 3 49 24 18 50 25 55 31 38 65 66 11 53
Route #5: 75 68 30 48 47 21 61 22 62 28 74 2 6
Route #6: 29 5 36 69 71 60 70 20 37 15 57 13 54 19 59 14 35 7
Cost 684.605442